c clasp version 2.1.4
c Reading from ...chMarks/23_Nodes/PBencd_RandomCost.opb
c Solving...
o 1138
o 1058
o 1051
o 1042
o 1033
o 1024
o 1000
o 998
o 992
o 981
o 953
o 950
o 943
o 936
o 924
o 922
o 903
o 877
o 870
o 868
o 842
o 834
o 824
o 810
o 809
o 799
o 788
o 765
o 764
o 738
o 710
o 695
o 683
o 649
o 638
o 632
o 628
o 577
o 572
o 571
o 556
o 554
o 547
o 538
o 536
o 517
o 500
o 495
o 458
o 457
o 451
o 436
o 435
o 434
o 424
o 416
o 412
o 401
o 393
o 392
o 378
o 374
o 368
o 359
o 343
o 336
o 328
o 323
o 321
o 313
o 305
o 301
o 290
o 289
o 285
o 268
o 243
o 242
o 241
o 234
o 225
o 224
o 216
o 200
